# sturcture data for vibra file
SystemLabel siesta
NumberOfAtoms            4
LatticeConstant 1.0 Bohr
%block LatticeVectors
  81.708   0.000   0.000
   0.000  76.205   0.000
   0.000   0.000  10.639
%endblock LatticeVectors
AtomicCoordinatesFormat  NotScaledCartesianBohr
%block AtomicCoordinatesAndAtomicSpecies
          0.1890          0.1890         99.9951   1         30.9700
          3.3316          2.0034         97.7074   1         30.9700
          3.3316          5.6322         99.9951   1         30.9700
          0.1890          7.4465         97.7074   1         30.9700
          0.1890         11.0753         99.9951   1         30.9700
          3.3316         12.8897         97.7074   1         30.9700
          3.3316         16.5185         99.9951   1         30.9700
          0.1890         18.3329         97.7074   1         30.9700
          0.1890         21.9617         99.9951   1         30.9700
          3.3316         23.7761         97.7074   1         30.9700
          3.3316         27.4049         99.9951   1         30.9700
          0.1890         29.2193         97.7074   1         30.9700
          0.1890         32.8480         99.9951   1         30.9700
          3.3316         34.6624         97.7074   1         30.9700
          3.3316         38.2912         99.9951   1         30.9700
          0.1890         40.1056         97.7074   1         30.9700
          0.1890         43.7344         99.9951   1         30.9700
          3.3316         45.5488         97.7074   1         30.9700
          3.3316         49.1776         99.9951   1         30.9700
          0.1890         50.9920         97.7074   1         30.9700
          0.1890         54.6208         99.9951   1         30.9700
          3.3316         56.4352         97.7074   1         30.9700
          3.3316         60.0639         99.9951   1         30.9700
          0.1890         61.8783         97.7074   1         30.9700
          0.1890         65.5071         99.9951   1         30.9700
          3.3316         67.3215         97.7074   1         30.9700
          3.3316         70.9503         99.9951   1         30.9700
          0.1890         72.7647         97.7074   1         30.9700
          6.4742          0.1890         99.9951   1         30.9700
          9.6168          2.0034         97.7074   1         30.9700
          9.6168          5.6322         99.9951   1         30.9700
          6.4742          7.4465         97.7074   1         30.9700
          6.4742         11.0753         99.9951   1         30.9700
          9.6168         12.8897         97.7074   1         30.9700
          9.6168         16.5185         99.9951   1         30.9700
          6.4742         18.3329         97.7074   1         30.9700
          6.4742         21.9617         99.9951   1         30.9700
          9.6168         23.7761         97.7074   1         30.9700
          9.6168         27.4049         99.9951   1         30.9700
          6.4742         29.2193         97.7074   1         30.9700
          6.4742         32.8480         99.9951   1         30.9700
          9.6168         34.6624         97.7074   1         30.9700
          9.6168         38.2912         99.9951   1         30.9700
          6.4742         40.1056         97.7074   1         30.9700
          6.4742         43.7344         99.9951   1         30.9700
          9.6168         45.5488         97.7074   1         30.9700
          9.6168         49.1776         99.9951   1         30.9700
          6.4742         50.9920         97.7074   1         30.9700
          6.4742         54.6208         99.9951   1         30.9700
          9.6168         56.4352         97.7074   1         30.9700
          9.6168         60.0639         99.9951   1         30.9700
          6.4742         61.8783         97.7074   1         30.9700
          6.4742         65.5071         99.9951   1         30.9700
          9.6168         67.3215         97.7074   1         30.9700
          9.6168         70.9503         99.9951   1         30.9700
          6.4742         72.7647         97.7074   1         30.9700
         12.7595          0.1890         99.9951   1         30.9700
         15.9021          2.0034         97.7074   1         30.9700
         15.9021          5.6322         99.9951   1         30.9700
         12.7595          7.4465         97.7074   1         30.9700
         12.7595         11.0753         99.9951   1         30.9700
         15.9021         12.8897         97.7074   1         30.9700
         15.9021         16.5185         99.9951   1         30.9700
         12.7595         18.3329         97.7074   1         30.9700
         12.7595         21.9617         99.9951   1         30.9700
         15.9021         23.7761         97.7074   1         30.9700
         15.9021         27.4049         99.9951   1         30.9700
         12.7595         29.2193         97.7074   1         30.9700
         12.7595         32.8480         99.9951   1         30.9700
         15.9021         34.6624         97.7074   1         30.9700
         15.9021         38.2912         99.9951   1         30.9700
         12.7595         40.1056         97.7074   1         30.9700
         12.7595         43.7344         99.9951   1         30.9700
         15.9021         45.5488         97.7074   1         30.9700
         15.9021         49.1776         99.9951   1         30.9700
         12.7595         50.9920         97.7074   1         30.9700
         12.7595         54.6208         99.9951   1         30.9700
         15.9021         56.4352         97.7074   1         30.9700
         15.9021         60.0639         99.9951   1         30.9700
         12.7595         61.8783         97.7074   1         30.9700
         12.7595         65.5071         99.9951   1         30.9700
         15.9021         67.3215         97.7074   1         30.9700
         15.9021         70.9503         99.9951   1         30.9700
         12.7595         72.7647         97.7074   1         30.9700
         19.0447          0.1890         99.9951   1         30.9700
         22.1873          2.0034         97.7074   1         30.9700
         22.1873          5.6322         99.9951   1         30.9700
         19.0447          7.4465         97.7074   1         30.9700
         19.0447         11.0753         99.9951   1         30.9700
         22.1873         12.8897         97.7074   1         30.9700
         22.1873         16.5185         99.9951   1         30.9700
         19.0447         18.3329         97.7074   1         30.9700
         19.0447         21.9617         99.9951   1         30.9700
         22.1873         23.7761         97.7074   1         30.9700
         22.1873         27.4049         99.9951   1         30.9700
         19.0447         29.2193         97.7074   1         30.9700
         19.0447         32.8480         99.9951   1         30.9700
         22.1873         34.6624         97.7074   1         30.9700
         22.1873         38.2912         99.9951   1         30.9700
         19.0447         40.1056         97.7074   1         30.9700
         19.0447         43.7344         99.9951   1         30.9700
         22.1873         45.5488         97.7074   1         30.9700
         22.1873         49.1776         99.9951   1         30.9700
         19.0447         50.9920         97.7074   1         30.9700
         19.0447         54.6208         99.9951   1         30.9700
         22.1873         56.4352         97.7074   1         30.9700
         22.1873         60.0639         99.9951   1         30.9700
         19.0447         61.8783         97.7074   1         30.9700
         19.0447         65.5071         99.9951   1         30.9700
         22.1873         67.3215         97.7074   1         30.9700
         22.1873         70.9503         99.9951   1         30.9700
         19.0447         72.7647         97.7074   1         30.9700
         25.3299          0.1890         99.9951   1         30.9700
         28.4726          2.0034         97.7074   1         30.9700
         28.4726          5.6322         99.9951   1         30.9700
         25.3299          7.4465         97.7074   1         30.9700
         25.3299         11.0753         99.9951   1         30.9700
         28.4726         12.8897         97.7074   1         30.9700
         28.4726         16.5185         99.9951   1         30.9700
         25.3299         18.3329         97.7074   1         30.9700
         25.3299         21.9617         99.9951   1         30.9700
         28.4726         23.7761         97.7074   1         30.9700
         28.4726         27.4049         99.9951   1         30.9700
         25.3299         29.2193         97.7074   1         30.9700
         25.3299         32.8480         99.9951   1         30.9700
         28.4726         34.6624         97.7074   1         30.9700
         28.4726         38.2912         99.9951   1         30.9700
         25.3299         40.1056         97.7074   1         30.9700
         25.3299         43.7344         99.9951   1         30.9700
         28.4726         45.5488         97.7074   1         30.9700
         28.4726         49.1776         99.9951   1         30.9700
         25.3299         50.9920         97.7074   1         30.9700
         25.3299         54.6208         99.9951   1         30.9700
         28.4726         56.4352         97.7074   1         30.9700
         28.4726         60.0639         99.9951   1         30.9700
         25.3299         61.8783         97.7074   1         30.9700
         25.3299         65.5071         99.9951   1         30.9700
         28.4726         67.3215         97.7074   1         30.9700
         28.4726         70.9503         99.9951   1         30.9700
         25.3299         72.7647         97.7074   1         30.9700
         31.6152          0.1890         99.9951   1         30.9700
         34.7578          2.0034         97.7074   1         30.9700
         34.7578          5.6322         99.9951   1         30.9700
         31.6152          7.4465         97.7074   1         30.9700
         31.6152         11.0753         99.9951   1         30.9700
         34.7578         12.8897         97.7074   1         30.9700
         34.7578         16.5185         99.9951   1         30.9700
         31.6152         18.3329         97.7074   1         30.9700
         31.6152         21.9617         99.9951   1         30.9700
         34.7578         23.7761         97.7074   1         30.9700
         34.7578         27.4049         99.9951   1         30.9700
         31.6152         29.2193         97.7074   1         30.9700
         31.6152         32.8480         99.9951   1         30.9700
         34.7578         34.6624         97.7074   1         30.9700
         34.7578         38.2912         99.9951   1         30.9700
         31.6152         40.1056         97.7074   1         30.9700
         31.6152         43.7344         99.9951   1         30.9700
         34.7578         45.5488         97.7074   1         30.9700
         34.7578         49.1776         99.9951   1         30.9700
         31.6152         50.9920         97.7074   1         30.9700
         31.6152         54.6208         99.9951   1         30.9700
         34.7578         56.4352         97.7074   1         30.9700
         34.7578         60.0639         99.9951   1         30.9700
         31.6152         61.8783         97.7074   1         30.9700
         31.6152         65.5071         99.9951   1         30.9700
         34.7578         67.3215         97.7074   1         30.9700
         34.7578         70.9503         99.9951   1         30.9700
         31.6152         72.7647         97.7074   1         30.9700
         37.9004          0.1890         99.9951   1         30.9700
         41.0430          2.0034         97.7074   1         30.9700
         41.0430          5.6322         99.9951   1         30.9700
         37.9004          7.4465         97.7074   1         30.9700
         37.9004         11.0753         99.9951   1         30.9700
         41.0430         12.8897         97.7074   1         30.9700
         41.0430         16.5185         99.9951   1         30.9700
         37.9004         18.3329         97.7074   1         30.9700
         37.9004         21.9617         99.9951   1         30.9700
         41.0430         23.7761         97.7074   1         30.9700
         41.0430         27.4049         99.9951   1         30.9700
         37.9004         29.2193         97.7074   1         30.9700
         37.9004         32.8480         99.9951   1         30.9700
         41.0430         34.6624         97.7074   1         30.9700
         41.0430         38.2912         99.9951   1         30.9700
         37.9004         40.1056         97.7074   1         30.9700
         37.9004         43.7344         99.9951   1         30.9700
         41.0430         45.5488         97.7074   1         30.9700
         41.0430         49.1776         99.9951   1         30.9700
         37.9004         50.9920         97.7074   1         30.9700
         37.9004         54.6208         99.9951   1         30.9700
         41.0430         56.4352         97.7074   1         30.9700
         41.0430         60.0639         99.9951   1         30.9700
         37.9004         61.8783         97.7074   1         30.9700
         37.9004         65.5071         99.9951   1         30.9700
         41.0430         67.3215         97.7074   1         30.9700
         41.0430         70.9503         99.9951   1         30.9700
         37.9004         72.7647         97.7074   1         30.9700
         44.1857          0.1890         99.9951   1         30.9700
         47.3283          2.0034         97.7074   1         30.9700
         47.3283          5.6322         99.9951   1         30.9700
         44.1857          7.4465         97.7074   1         30.9700
         44.1857         11.0753         99.9951   1         30.9700
         47.3283         12.8897         97.7074   1         30.9700
         47.3283         16.5185         99.9951   1         30.9700
         44.1857         18.3329         97.7074   1         30.9700
         44.1857         21.9617         99.9951   1         30.9700
         47.3283         23.7761         97.7074   1         30.9700
         47.3283         27.4049         99.9951   1         30.9700
         44.1857         29.2193         97.7074   1         30.9700
         44.1857         32.8480         99.9951   1         30.9700
         47.3283         34.6624         97.7074   1         30.9700
         47.3283         38.2912         99.9951   1         30.9700
         44.1857         40.1056         97.7074   1         30.9700
         44.1857         43.7344         99.9951   1         30.9700
         47.3283         45.5488         97.7074   1         30.9700
         47.3283         49.1776         99.9951   1         30.9700
         44.1857         50.9920         97.7074   1         30.9700
         44.1857         54.6208         99.9951   1         30.9700
         47.3283         56.4352         97.7074   1         30.9700
         47.3283         60.0639         99.9951   1         30.9700
         44.1857         61.8783         97.7074   1         30.9700
         44.1857         65.5071         99.9951   1         30.9700
         47.3283         67.3215         97.7074   1         30.9700
         47.3283         70.9503         99.9951   1         30.9700
         44.1857         72.7647         97.7074   1         30.9700
         50.4709          0.1890         99.9951   1         30.9700
         53.6135          2.0034         97.7074   1         30.9700
         53.6135          5.6322         99.9951   1         30.9700
         50.4709          7.4465         97.7074   1         30.9700
         50.4709         11.0753         99.9951   1         30.9700
         53.6135         12.8897         97.7074   1         30.9700
         53.6135         16.5185         99.9951   1         30.9700
         50.4709         18.3329         97.7074   1         30.9700
         50.4709         21.9617         99.9951   1         30.9700
         53.6135         23.7761         97.7074   1         30.9700
         53.6135         27.4049         99.9951   1         30.9700
         50.4709         29.2193         97.7074   1         30.9700
         50.4709         32.8480         99.9951   1         30.9700
         53.6135         34.6624         97.7074   1         30.9700
         53.6135         38.2912         99.9951   1         30.9700
         50.4709         40.1056         97.7074   1         30.9700
         50.4709         43.7344         99.9951   1         30.9700
         53.6135         45.5488         97.7074   1         30.9700
         53.6135         49.1776         99.9951   1         30.9700
         50.4709         50.9920         97.7074   1         30.9700
         50.4709         54.6208         99.9951   1         30.9700
         53.6135         56.4352         97.7074   1         30.9700
         53.6135         60.0639         99.9951   1         30.9700
         50.4709         61.8783         97.7074   1         30.9700
         50.4709         65.5071         99.9951   1         30.9700
         53.6135         67.3215         97.7074   1         30.9700
         53.6135         70.9503         99.9951   1         30.9700
         50.4709         72.7647         97.7074   1         30.9700
         56.7562          0.1890         99.9951   1         30.9700
         59.8988          2.0034         97.7074   1         30.9700
         59.8988          5.6322         99.9951   1         30.9700
         56.7562          7.4465         97.7074   1         30.9700
         56.7562         11.0753         99.9951   1         30.9700
         59.8988         12.8897         97.7074   1         30.9700
         59.8988         16.5185         99.9951   1         30.9700
         56.7562         18.3329         97.7074   1         30.9700
         56.7562         21.9617         99.9951   1         30.9700
         59.8988         23.7761         97.7074   1         30.9700
         59.8988         27.4049         99.9951   1         30.9700
         56.7562         29.2193         97.7074   1         30.9700
         56.7562         32.8480         99.9951   1         30.9700
         59.8988         34.6624         97.7074   1         30.9700
         59.8988         38.2912         99.9951   1         30.9700
         56.7562         40.1056         97.7074   1         30.9700
         56.7562         43.7344         99.9951   1         30.9700
         59.8988         45.5488         97.7074   1         30.9700
         59.8988         49.1776         99.9951   1         30.9700
         56.7562         50.9920         97.7074   1         30.9700
         56.7562         54.6208         99.9951   1         30.9700
         59.8988         56.4352         97.7074   1         30.9700
         59.8988         60.0639         99.9951   1         30.9700
         56.7562         61.8783         97.7074   1         30.9700
         56.7562         65.5071         99.9951   1         30.9700
         59.8988         67.3215         97.7074   1         30.9700
         59.8988         70.9503         99.9951   1         30.9700
         56.7562         72.7647         97.7074   1         30.9700
         63.0414          0.1890         99.9951   1         30.9700
         66.1840          2.0034         97.7074   1         30.9700
         66.1840          5.6322         99.9951   1         30.9700
         63.0414          7.4465         97.7074   1         30.9700
         63.0414         11.0753         99.9951   1         30.9700
         66.1840         12.8897         97.7074   1         30.9700
         66.1840         16.5185         99.9951   1         30.9700
         63.0414         18.3329         97.7074   1         30.9700
         63.0414         21.9617         99.9951   1         30.9700
         66.1840         23.7761         97.7074   1         30.9700
         66.1840         27.4049         99.9951   1         30.9700
         63.0414         29.2193         97.7074   1         30.9700
         63.0414         32.8480         99.9951   1         30.9700
         66.1840         34.6624         97.7074   1         30.9700
         66.1840         38.2912         99.9951   1         30.9700
         63.0414         40.1056         97.7074   1         30.9700
         63.0414         43.7344         99.9951   1         30.9700
         66.1840         45.5488         97.7074   1         30.9700
         66.1840         49.1776         99.9951   1         30.9700
         63.0414         50.9920         97.7074   1         30.9700
         63.0414         54.6208         99.9951   1         30.9700
         66.1840         56.4352         97.7074   1         30.9700
         66.1840         60.0639         99.9951   1         30.9700
         63.0414         61.8783         97.7074   1         30.9700
         63.0414         65.5071         99.9951   1         30.9700
         66.1840         67.3215         97.7074   1         30.9700
         66.1840         70.9503         99.9951   1         30.9700
         63.0414         72.7647         97.7074   1         30.9700
         69.3266          0.1890         99.9951   1         30.9700
         72.4693          2.0034         97.7074   1         30.9700
         72.4693          5.6322         99.9951   1         30.9700
         69.3266          7.4465         97.7074   1         30.9700
         69.3266         11.0753         99.9951   1         30.9700
         72.4693         12.8897         97.7074   1         30.9700
         72.4693         16.5185         99.9951   1         30.9700
         69.3266         18.3329         97.7074   1         30.9700
         69.3266         21.9617         99.9951   1         30.9700
         72.4693         23.7761         97.7074   1         30.9700
         72.4693         27.4049         99.9951   1         30.9700
         69.3266         29.2193         97.7074   1         30.9700
         69.3266         32.8480         99.9951   1         30.9700
         72.4693         34.6624         97.7074   1         30.9700
         72.4693         38.2912         99.9951   1         30.9700
         69.3266         40.1056         97.7074   1         30.9700
         69.3266         43.7344         99.9951   1         30.9700
         72.4693         45.5488         97.7074   1         30.9700
         72.4693         49.1776         99.9951   1         30.9700
         69.3266         50.9920         97.7074   1         30.9700
         69.3266         54.6208         99.9951   1         30.9700
         72.4693         56.4352         97.7074   1         30.9700
         72.4693         60.0639         99.9951   1         30.9700
         69.3266         61.8783         97.7074   1         30.9700
         69.3266         65.5071         99.9951   1         30.9700
         72.4693         67.3215         97.7074   1         30.9700
         72.4693         70.9503         99.9951   1         30.9700
         69.3266         72.7647         97.7074   1         30.9700
         75.6119          0.1890         99.9951   1         30.9700
         78.7545          2.0034         97.7074   1         30.9700
         78.7545          5.6322         99.9951   1         30.9700
         75.6119          7.4465         97.7074   1         30.9700
         75.6119         11.0753         99.9951   1         30.9700
         78.7545         12.8897         97.7074   1         30.9700
         78.7545         16.5185         99.9951   1         30.9700
         75.6119         18.3329         97.7074   1         30.9700
         75.6119         21.9617         99.9951   1         30.9700
         78.7545         23.7761         97.7074   1         30.9700
         78.7545         27.4049         99.9951   1         30.9700
         75.6119         29.2193         97.7074   1         30.9700
         75.6119         32.8480         99.9951   1         30.9700
         78.7545         34.6624         97.7074   1         30.9700
         78.7545         38.2912         99.9951   1         30.9700
         75.6119         40.1056         97.7074   1         30.9700
         75.6119         43.7344         99.9951   1         30.9700
         78.7545         45.5488         97.7074   1         30.9700
         78.7545         49.1776         99.9951   1         30.9700
         75.6119         50.9920         97.7074   1         30.9700
         75.6119         54.6208         99.9951   1         30.9700
         78.7545         56.4352         97.7074   1         30.9700
         78.7545         60.0639         99.9951   1         30.9700
         75.6119         61.8783         97.7074   1         30.9700
         75.6119         65.5071         99.9951   1         30.9700
         78.7545         67.3215         97.7074   1         30.9700
         78.7545         70.9503         99.9951   1         30.9700
         75.6119         72.7647         97.7074   1         30.9700
%endblock AtomicCoordinatesAndAtomicSpecies
SuperCell_1 0
SuperCell_2 0
SuperCell_3 0
AtomicDispl 0.04 Bohr
BandLinesScale ReciprocalLatticeVectors
%block BandLines
1  0.000  0.000  0.000
20  0.500  0.000  0.000
20  0.500  0.500  0.000
20  0.000  0.500  0.000
%endblock BandLines
#Eigenvectors .true.
